3 
4 
2 
8 
6 
10 
2 
9 
8 
9 
8 
8 
8 
9 
5 
10 
9 
4 
5 
7 
14 
4 
7 
11 
6 
7 
9 
4 
20 
3 
9 
13 
10 
7 
11 
8 
7 
15 
12 
9 
8 
8 
7 
5 
8 
4 
9 
9 
5 
7 
16 
8 
13 
10 
10 
4 
9 
5 
12 
8 
5 
5 
6 
8 
11 
4 
8 
6 
5 
11 
3 
10 
9 
4 
6 
9 
9 
12 
8 
6 
2 
8 
13 
7 
10 
4 
5 
5 
8 
6 
10 
5 
7 
9 
4 
5 
3 
8 
5 
9 
